% seed = 0

mint = 24;
% maxt = 86;

nActs = 32;
dur = [0,1,3,1,3,2,5,3,4,2,3,2,2,2,2,6,2,5,3,4,3,3,3,4,3,2,1,4,3,4,1,0];

nSkills = 12;
sreq = [| 0,0,0,0,0,0,0,0,0,0,0,0,
	| 0,1,0,0,0,0,0,1,0,0,0,0,
	| 0,0,1,0,0,0,0,0,0,0,0,0,
	| 0,0,1,0,0,0,0,0,0,0,0,0,
	| 1,0,0,0,1,1,0,0,1,0,0,0,
	| 0,0,0,0,1,0,0,0,0,1,0,0,
	| 0,0,0,0,0,2,1,0,0,0,0,0,
	| 0,0,0,1,2,1,0,0,0,0,0,0,
	| 0,0,0,0,0,0,0,0,0,0,1,0,
	| 0,0,2,0,2,0,0,0,0,0,0,0,
	| 0,0,1,0,0,0,1,0,0,0,0,0,
	| 0,0,0,0,1,0,0,0,0,0,1,0,
	| 0,0,0,0,1,2,0,0,0,0,0,0,
	| 0,0,0,0,1,0,0,0,0,0,0,0,
	| 0,0,1,0,0,0,0,0,0,0,0,1,
	| 0,0,0,0,1,2,0,0,0,0,0,0,
	| 0,0,1,1,0,0,0,0,0,0,0,0,
	| 0,0,0,0,0,1,0,0,0,0,0,0,
	| 0,0,0,0,0,1,0,0,0,0,0,0,
	| 0,0,0,0,0,0,0,0,0,0,1,0,
	| 0,0,0,0,1,1,0,0,0,0,0,0,
	| 0,0,1,0,0,2,0,0,1,0,0,0,
	| 0,0,0,0,0,2,0,0,0,1,1,0,
	| 0,0,1,1,0,0,0,0,0,1,0,0,
	| 0,0,3,0,0,1,0,0,0,0,0,0,
	| 0,0,1,0,0,0,0,0,0,0,2,0,
	| 0,0,1,0,0,0,0,0,0,0,0,0,
	| 0,0,1,0,0,1,0,0,0,1,0,0,
	| 0,0,0,0,0,0,0,0,1,0,1,0,
	| 0,0,0,0,1,0,0,0,0,0,0,0,
	| 0,0,0,0,0,1,0,0,0,0,0,0,
	| 0,0,0,0,0,0,0,0,0,0,0,0, |];

% SumOfsreq = 68;

nResources = 12;
mastery = [| false,false,false,false,true,true,false,false,false,false,false,false,
	| false,false,false,true,true,true,true,true,true,true,true,true,
	| false,false,true,false,false,false,false,false,false,false,false,false,
	| false,false,true,false,false,false,false,false,false,false,false,false,
	| false,false,false,true,true,true,false,false,false,false,false,false,
	| false,false,true,false,false,true,false,false,false,false,false,false,
	| false,false,false,false,true,true,false,false,false,false,false,false,
	| false,false,false,false,false,true,false,false,false,true,true,true,
	| false,false,false,false,true,true,false,false,false,false,false,false,
	| true,true,true,false,false,false,false,false,true,false,true,true,
	| false,false,false,false,false,false,true,true,true,true,true,true,
	| false,false,true,false,false,false,false,false,false,false,false,false, |];

nPrecs = 68;
pred = [1,1,1,2,2,2,3,3,3,4,4,4,5,5,5,6,6,6,7,7,7,8,8,8,9,9,9,10,10,11,11,12,12,12,13,13,14,14,14,15,15,15,16,17,17,17,18,18,18,19,19,19,20,21,22,22,22,23,23,24,24,25,26,27,28,29,30,31];
succ = [2,3,4,28,24,8,13,6,15,5,7,8,9,13,14,19,22,16,10,11,12,18,13,26,18,28,16,22,15,17,22,17,18,25,31,16,25,27,20,17,19,23,21,20,31,24,21,31,23,20,21,24,28,27,25,27,23,29,30,26,29,26,30,30,29,32,32,32];

nUnrels = 204;
unpred = [2,2,2,2,2,2,2,2,2,2,2,2,2,2,2,2,3,3,3,3,3,3,3,3,3,3,4,5,5,5,5,5,5,5,5,5,5,5,6,6,6,6,6,6,6,6,6,6,6,6,7,7,7,7,7,8,8,8,8,8,8,8,8,8,8,8,8,8,9,9,9,9,9,9,9,9,9,9,9,9,9,10,10,10,10,10,10,11,11,11,11,11,11,11,11,12,12,12,12,12,12,13,13,13,13,13,13,13,13,13,13,13,13,13,14,14,14,14,14,14,14,14,14,14,15,15,15,15,16,16,16,16,16,16,16,16,16,16,16,16,17,17,17,17,17,17,17,18,18,18,18,18,18,18,19,19,19,19,20,20,20,20,20,20,20,20,20,21,21,21,21,21,21,21,21,22,22,22,23,23,23,23,23,23,24,24,24,24,25,25,25,25,26,26,26,26,27,27,27,28,28,29,29,30];
unsucc = [3,4,5,6,7,9,10,11,12,14,15,17,19,20,22,25,4,5,7,8,9,10,11,12,14,18,6,6,7,8,10,11,12,15,17,19,22,24,7,8,9,10,11,12,13,14,15,17,18,31,8,9,13,14,16,9,10,11,12,14,15,17,19,20,22,24,25,28,10,11,12,13,14,15,17,19,20,22,24,25,26,11,12,13,14,16,18,12,13,14,15,16,18,19,21,13,14,15,16,19,22,14,15,17,18,19,20,22,23,24,25,26,28,29,15,16,17,18,19,21,22,23,24,31,16,18,22,25,17,18,19,20,22,23,24,25,26,28,29,31,18,19,21,22,23,25,27,19,20,22,24,25,26,28,22,23,25,31,21,22,23,24,25,26,27,30,31,22,23,24,25,26,28,29,31,24,28,31,24,25,26,27,28,31,25,27,28,31,27,28,29,31,27,28,29,31,28,29,31,30,31,30,31,31];

USEFUL_RES = [{},
	{2,10,11},
	{3,4,6,10,12},
	{3,4,6,10,12},
	{1,2,5,6,7,8,9,10,11},
	{1,2,5,7,8,9,11},
	{1,2,5,6,7,8,9,11},
	{1,2,5,6,7,8,9},
	{2,8,10,11},
	{1,2,3,4,5,6,7,9,10,12},
	{2,3,4,6,10,11,12},
	{1,2,5,7,8,9,10,11},
	{1,2,5,6,7,8,9},
	{1,2,5,7,9},
	{2,3,4,6,8,10,11,12},
	{1,2,5,6,7,8,9},
	{2,3,4,5,6,10,12},
	{1,2,5,6,7,8,9},
	{1,2,5,6,7,8,9},
	{2,8,10,11},
	{1,2,5,6,7,8,9},
	{1,2,3,4,5,6,7,8,9,10,11,12},
	{1,2,5,6,7,8,9,10,11},
	{2,3,4,5,6,8,10,11,12},
	{1,2,3,4,5,6,7,8,9,10,12},
	{2,3,4,6,8,10,11,12},
	{3,4,6,10,12},
	{1,2,3,4,5,6,7,8,9,10,11,12},
	{2,8,10,11},
	{1,2,5,7,9},
	{1,2,5,6,7,8,9},
	{}];

POTENTIAL_ACT = [{5,6,7,8,10,12,13,14,16,18,19,21,22,23,25,28,30,31},
	{2,5,6,7,8,9,10,11,12,13,14,15,16,17,18,19,20,21,22,23,24,25,26,28,29,30,31},
	{3,4,10,11,15,17,22,24,25,26,27,28},
	{3,4,10,11,15,17,22,24,25,26,27,28},
	{5,6,7,8,10,12,13,14,16,17,18,19,21,22,23,24,25,28,30,31},
	{3,4,5,7,8,10,11,13,15,16,17,18,19,21,22,23,24,25,26,27,28,31},
	{5,6,7,8,10,12,13,14,16,18,19,21,22,23,25,28,30,31},
	{5,6,7,8,9,12,13,15,16,18,19,20,21,22,23,24,25,26,28,29,31},
	{5,6,7,8,10,12,13,14,16,18,19,21,22,23,25,28,30,31},
	{2,3,4,5,9,10,11,12,15,17,20,22,23,24,25,26,27,28,29},
	{2,5,6,7,9,11,12,15,20,22,23,24,26,28,29},
	{3,4,10,11,15,17,22,24,25,26,27,28}];
